<number of tasks>
50

<cycle time>
1000

<order strength>
0.2


<task times>
1 192
2 54
3 124
4 273
5 197
6 138
7 106
8 315
9 170
10 217
11 107
12 106
13 38
14 99
15 138
16 84
17 97
18 104
19 176
20 119
21 228
22 184
23 44
24 156
25 258
26 204
27 107
28 96
29 284
30 40
31 82
32 127
33 51
34 246
35 91
36 53
37 108
38 63
39 27
40 230
41 29
42 62
43 144
44 174
45 27
46 153
47 113
48 220
49 51
50 235

<precedence relations>
1,10
1,12
2,10
2,11
2,13
4,42
8,9
9,15
9,16
9,17
10,21
11,36
12,30
12,34
12,49
13,14
14,23
14,24
15,19
16,20
16,21
16,25
17,18
17,22
18,41
19,30
20,28
21,27
21,32
21,37
22,31
23,26
24,29
25,26
25,38
28,33
28,37
28,38
29,36
30,35
32,34
32,39
32,41
34,44
35,42
35,47
36,41
36,43
36,45
37,40
39,46
40,49
41,50
47,48

<end>
